c A SAT instance generated from a 3-CNF formula that had 18 clauses and 9 variables
p cnf 9 18
7 -8 5 0
5 -7 -6 0
8 -2 6 0
6 -7 2 0
2 5 3 0
2 4 -1 0
6 9 -1 0
9 7 5 0
-9 -3 7 0
6 4 8 0
1 6 -4 0
5 -1 -8 0
-6 1 2 0
8 -4 -1 0
-8 -7 5 0
1 7 -9 0
4 5 8 0
5 -2 9 0
